(declare-fun i5 () Int)
(declare-fun i8 () Int)
(declare-fun i12 () Int)
(check-sat)
(check-sat)
(assert (>= i8 39))
(push)
(assert false)
(check-sat)
(pop)
(check-sat)
(assert (=> false (= 155 i5)))
(declare-fun v19 () Bool)
(assert (< 92 i12))
(assert (= (/ i5 92) i12))
(assert (= (>= i8 39) (=> (< 92 i12) v19)))
(check-sat)
